x low 4.00
p edge 644 1785
n 0 1.00
n 490 1.00
n 548 1.00
n 1 1.00
n 14 1.00
n 15 1.00
n 549 1.00
n 550 1.00
n 551 1.00
n 552 1.00
n 553 1.00
n 554 1.00
n 555 1.00
n 556 1.00
n 557 1.00
n 558 1.00
n 559 1.00
n 2 1.00
n 109 1.00
n 113 1.00
n 117 1.00
n 3 1.00
n 4 1.00
n 121 1.00
n 125 1.00
n 129 1.00
n 133 1.00
n 137 1.00
n 141 1.00
n 145 1.00
n 149 1.00
n 153 1.00
n 157 1.00
n 161 1.00
n 165 1.00
n 169 1.00
n 173 1.00
n 177 1.00
n 181 1.00
n 185 1.00
n 189 1.00
n 193 1.00
n 197 1.00
n 201 1.00
n 101 1.00
n 100 1.00
n 5 1.00
n 11 1.00
n 10 1.00
n 6 1.00
n 7 1.00
n 92 1.00
n 81 1.00
n 9 1.00
n 73 1.00
n 8 1.00
n 12 1.00
n 63 1.00
n 62 1.00
n 102 1.00
n 64 1.00
n 60 1.00
n 61 1.00
n 13 1.00
n 51 1.00
n 46 1.00
n 35 1.00
n 34 1.00
n 29 1.00
n 21 1.00
n 16 1.00
n 58 1.00
n 572 1.00
n 630 1.00
n 573 1.00
n 574 1.00
n 575 1.00
n 576 1.00
n 577 1.00
n 578 1.00
n 579 1.00
n 580 1.00
n 581 1.00
n 582 1.00
n 583 1.00
n 584 1.00
n 585 1.00
n 586 1.00
n 298 1.00
n 302 1.00
n 306 1.00
n 310 1.00
n 314 1.00
n 318 1.00
n 322 1.00
n 326 1.00
n 330 1.00
n 334 1.00
n 338 1.00
n 342 1.00
n 346 1.00
n 350 1.00
n 354 1.00
n 358 1.00
n 362 1.00
n 366 1.00
n 370 1.00
n 374 1.00
n 378 1.00
n 382 1.00
n 386 1.00
n 390 1.00
n 57 1.00
n 17 1.00
n 49 1.00
n 18 1.00
n 642 1.00
n 587 1.00
n 45 1.00
n 38 1.00
n 37 1.00
n 25 1.00
n 20 1.00
n 19 1.00
n 23 1.00
n 24 1.00
n 22 1.00
n 597 1.00
n 598 1.00
n 599 1.00
n 600 1.00
n 601 1.00
n 394 1.00
n 65 1.00
n 398 1.00
n 402 1.00
n 406 1.00
n 410 1.00
n 414 1.00
n 68 1.00
n 418 1.00
n 422 1.00
n 426 1.00
n 430 1.00
n 434 1.00
n 438 1.00
n 442 1.00
n 446 1.00
n 450 1.00
n 454 1.00
n 458 1.00
n 462 1.00
n 466 1.00
n 470 1.00
n 474 1.00
n 478 1.00
n 482 1.00
n 486 1.00
n 588 1.00
n 589 1.00
n 590 1.00
n 591 1.00
n 592 1.00
n 593 1.00
n 594 1.00
n 595 1.00
n 596 1.00
n 28 1.00
n 27 1.00
n 26 1.00
n 33 1.00
n 30 1.00
n 31 1.00
n 32 1.00
n 36 1.00
n 39 1.00
n 40 1.00
n 41 1.00
n 43 1.00
n 42 1.00
n 44 1.00
n 47 1.00
n 50 1.00
n 48 1.00
n 52 1.00
n 55 1.00
n 56 1.00
n 53 1.00
n 54 1.00
n 70 1.00
n 103 1.00
n 71 1.00
n 72 1.00
n 66 1.00
n 67 1.00
n 69 1.00
n 105 1.00
n 104 1.00
n 76 1.00
n 75 1.00
n 74 1.00
n 560 1.00
n 561 1.00
n 562 1.00
n 563 1.00
n 77 1.00
n 505 1.00
n 78 1.00
n 80 1.00
n 79 1.00
n 82 1.00
n 84 1.00
n 83 1.00
n 85 1.00
n 86 1.00
n 89 1.00
n 87 1.00
n 88 1.00
n 91 1.00
n 90 1.00
n 93 1.00
n 95 1.00
n 94 1.00
n 99 1.00
n 96 1.00
n 98 1.00
n 198 1.00
n 97 1.00
n 200 1.00
n 199 1.00
n 564 1.00
n 565 1.00
n 566 1.00
n 567 1.00
n 568 1.00
n 569 1.00
n 570 1.00
n 571 1.00
n 205 1.00
n 209 1.00
n 213 1.00
n 217 1.00
n 221 1.00
n 225 1.00
n 229 1.00
n 233 1.00
n 237 1.00
n 241 1.00
n 245 1.00
n 249 1.00
n 253 1.00
n 257 1.00
n 261 1.00
n 265 1.00
n 269 1.00
n 273 1.00
n 277 1.00
n 281 1.00
n 285 1.00
n 289 1.00
n 293 1.00
n 297 1.00
n 296 1.00
n 295 1.00
n 487 1.00
n 488 1.00
n 489 1.00
n 106 1.00
n 107 1.00
n 504 1.00
n 111 1.00
n 110 1.00
n 108 1.00
n 112 1.00
n 115 1.00
n 114 1.00
n 116 1.00
n 119 1.00
n 118 1.00
n 120 1.00
n 123 1.00
n 122 1.00
n 124 1.00
n 127 1.00
n 126 1.00
n 128 1.00
n 131 1.00
n 130 1.00
n 132 1.00
n 135 1.00
n 134 1.00
n 136 1.00
n 139 1.00
n 138 1.00
n 140 1.00
n 143 1.00
n 142 1.00
n 144 1.00
n 147 1.00
n 146 1.00
n 148 1.00
n 151 1.00
n 150 1.00
n 152 1.00
n 155 1.00
n 154 1.00
n 156 1.00
n 159 1.00
n 158 1.00
n 160 1.00
n 163 1.00
n 162 1.00
n 164 1.00
n 167 1.00
n 166 1.00
n 168 1.00
n 171 1.00
n 170 1.00
n 172 1.00
n 175 1.00
n 174 1.00
n 176 1.00
n 179 1.00
n 178 1.00
n 180 1.00
n 183 1.00
n 182 1.00
n 184 1.00
n 187 1.00
n 186 1.00
n 188 1.00
n 191 1.00
n 190 1.00
n 192 1.00
n 195 1.00
n 194 1.00
n 196 1.00
n 202 1.00
n 203 1.00
n 519 1.00
n 207 1.00
n 206 1.00
n 204 1.00
n 208 1.00
n 211 1.00
n 210 1.00
n 212 1.00
n 215 1.00
n 214 1.00
n 216 1.00
n 219 1.00
n 218 1.00
n 220 1.00
n 223 1.00
n 222 1.00
n 224 1.00
n 227 1.00
n 226 1.00
n 228 1.00
n 231 1.00
n 230 1.00
n 232 1.00
n 235 1.00
n 234 1.00
n 236 1.00
n 239 1.00
n 238 1.00
n 240 1.00
n 243 1.00
n 242 1.00
n 244 1.00
n 247 1.00
n 246 1.00
n 248 1.00
n 251 1.00
n 250 1.00
n 252 1.00
n 255 1.00
n 254 1.00
n 256 1.00
n 259 1.00
n 258 1.00
n 260 1.00
n 263 1.00
n 262 1.00
n 264 1.00
n 267 1.00
n 266 1.00
n 268 1.00
n 271 1.00
n 270 1.00
n 272 1.00
n 275 1.00
n 274 1.00
n 276 1.00
n 279 1.00
n 278 1.00
n 280 1.00
n 283 1.00
n 282 1.00
n 284 1.00
n 287 1.00
n 286 1.00
n 288 1.00
n 291 1.00
n 290 1.00
n 292 1.00
n 299 1.00
n 303 1.00
n 300 1.00
n 304 1.00
n 641 1.00
n 305 1.00
n 307 1.00
n 308 1.00
n 309 1.00
n 311 1.00
n 312 1.00
n 313 1.00
n 315 1.00
n 316 1.00
n 317 1.00
n 319 1.00
n 320 1.00
n 321 1.00
n 323 1.00
n 324 1.00
n 325 1.00
n 327 1.00
n 328 1.00
n 329 1.00
n 331 1.00
n 332 1.00
n 333 1.00
n 335 1.00
n 336 1.00
n 337 1.00
n 339 1.00
n 340 1.00
n 341 1.00
n 343 1.00
n 344 1.00
n 345 1.00
n 347 1.00
n 348 1.00
n 349 1.00
n 351 1.00
n 352 1.00
n 353 1.00
n 355 1.00
n 356 1.00
n 357 1.00
n 359 1.00
n 360 1.00
n 361 1.00
n 363 1.00
n 364 1.00
n 365 1.00
n 367 1.00
n 368 1.00
n 369 1.00
n 371 1.00
n 372 1.00
n 373 1.00
n 375 1.00
n 376 1.00
n 377 1.00
n 379 1.00
n 380 1.00
n 381 1.00
n 383 1.00
n 384 1.00
n 385 1.00
n 387 1.00
n 388 1.00
n 389 1.00
n 391 1.00
n 392 1.00
n 393 1.00
n 395 1.00
n 399 1.00
n 396 1.00
n 400 1.00
n 653 1.00
n 401 1.00
n 403 1.00
n 404 1.00
n 405 1.00
n 407 1.00
n 408 1.00
n 409 1.00
n 411 1.00
n 412 1.00
n 413 1.00
n 415 1.00
n 416 1.00
n 417 1.00
n 419 1.00
n 420 1.00
n 421 1.00
n 423 1.00
n 424 1.00
n 425 1.00
n 427 1.00
n 428 1.00
n 429 1.00
n 431 1.00
n 432 1.00
n 433 1.00
n 435 1.00
n 436 1.00
n 437 1.00
n 439 1.00
n 440 1.00
n 441 1.00
n 443 1.00
n 444 1.00
n 445 1.00
n 447 1.00
n 448 1.00
n 449 1.00
n 451 1.00
n 452 1.00
n 453 1.00
n 455 1.00
n 456 1.00
n 457 1.00
n 459 1.00
n 460 1.00
n 461 1.00
n 463 1.00
n 464 1.00
n 465 1.00
n 467 1.00
n 468 1.00
n 469 1.00
n 471 1.00
n 472 1.00
n 473 1.00
n 475 1.00
n 476 1.00
n 477 1.00
n 479 1.00
n 480 1.00
n 481 1.00
n 483 1.00
n 484 1.00
n 485 1.00
n 532 1.00
n 491 1.00
n 533 1.00
n 492 1.00
n 520 1.00
n 493 1.00
n 534 1.00
n 495 1.00
n 521 1.00
n 497 1.00
n 535 1.00
n 522 1.00
n 498 1.00
n 523 1.00
n 499 1.00
n 524 1.00
n 500 1.00
n 536 1.00
n 501 1.00
n 537 1.00
n 502 1.00
n 538 1.00
n 525 1.00
n 503 1.00
n 539 1.00
n 540 1.00
n 506 1.00
n 541 1.00
n 507 1.00
n 526 1.00
n 508 1.00
n 542 1.00
n 510 1.00
n 527 1.00
n 512 1.00
n 543 1.00
n 528 1.00
n 513 1.00
n 529 1.00
n 514 1.00
n 530 1.00
n 515 1.00
n 544 1.00
n 516 1.00
n 545 1.00
n 517 1.00
n 546 1.00
n 531 1.00
n 518 1.00
n 547 1.00
n 614 1.00
n 615 1.00
n 602 1.00
n 616 1.00
n 603 1.00
n 617 1.00
n 634 1.00
n 604 1.00
n 636 1.00
n 605 1.00
n 637 1.00
n 606 1.00
n 618 1.00
n 639 1.00
n 619 1.00
n 640 1.00
n 620 1.00
n 607 1.00
n 621 1.00
n 622 1.00
n 623 1.00
n 608 1.00
n 624 1.00
n 609 1.00
n 625 1.00
n 646 1.00
n 610 1.00
n 648 1.00
n 611 1.00
n 649 1.00
n 612 1.00
n 626 1.00
n 651 1.00
n 627 1.00
n 652 1.00
n 628 1.00
n 613 1.00
n 629 1.00
n 631 1.00
n 632 1.00
n 633 1.00
n 638 1.00
n 643 1.00
n 644 1.00
n 645 1.00
n 650 1.00
e 0 490
e 0 548
e 0 1
e 0 14
e 0 15
e 1 548
e 1 549
e 1 550
e 1 551
e 1 552
e 1 553
e 1 554
e 1 555
e 1 556
e 1 557
e 1 558
e 1 559
e 1 14
e 1 2
e 1 109
e 1 113
e 1 117
e 1 3
e 2 14
e 2 4
e 2 3
e 3 4
e 3 117
e 3 121
e 3 125
e 3 129
e 3 133
e 3 137
e 3 141
e 3 145
e 3 149
e 3 153
e 3 157
e 3 161
e 3 165
e 3 169
e 3 173
e 3 177
e 3 181
e 3 185
e 3 189
e 3 193
e 3 197
e 3 201
e 3 101
e 3 100
e 3 5
e 4 14
e 4 11
e 4 10
e 4 6
e 4 5
e 5 6
e 5 7
e 5 100
e 5 92
e 5 81
e 5 9
e 5 73
e 6 10
e 6 7
e 7 10
e 7 8
e 7 9
e 8 10
e 8 12
e 8 9
e 9 12
e 9 73
e 9 63
e 9 62
e 9 102
e 9 64
e 10 11
e 10 12
e 11 14
e 11 60
e 11 61
e 11 12
e 12 61
e 12 13
e 12 64
e 13 61
e 13 51
e 13 46
e 13 35
e 13 34
e 13 29
e 13 21
e 13 64
e 14 15
e 14 16
e 14 58
e 14 60
e 15 572
e 15 630
e 15 16
e 16 572
e 16 573
e 16 574
e 16 575
e 16 576
e 16 577
e 16 578
e 16 579
e 16 580
e 16 581
e 16 582
e 16 583
e 16 584
e 16 585
e 16 586
e 16 298
e 16 302
e 16 306
e 16 310
e 16 314
e 16 318
e 16 322
e 16 326
e 16 330
e 16 334
e 16 338
e 16 342
e 16 346
e 16 350
e 16 354
e 16 358
e 16 362
e 16 366
e 16 370
e 16 374
e 16 378
e 16 382
e 16 58
e 16 386
e 16 390
e 16 57
e 16 17
e 17 57
e 17 390
e 17 49
e 17 18
e 17 642
e 17 587
e 18 49
e 18 45
e 18 38
e 18 37
e 18 25
e 18 587
e 18 20
e 19 23
e 19 20
e 19 24
e 19 22
e 19 21
e 19 597
e 19 598
e 19 599
e 19 600
e 19 601
e 19 394
e 19 65
e 19 398
e 19 402
e 19 406
e 19 410
e 19 414
e 19 68
e 19 418
e 19 422
e 19 426
e 19 430
e 19 434
e 19 438
e 19 442
e 19 446
e 19 450
e 19 454
e 19 458
e 19 462
e 19 466
e 19 470
e 19 474
e 19 478
e 19 482
e 19 486
e 20 23
e 20 25
e 20 587
e 20 588
e 20 589
e 20 590
e 20 591
e 20 592
e 20 593
e 20 594
e 20 595
e 20 596
e 20 597
e 21 28
e 21 22
e 21 29
e 21 64
e 21 65
e 22 27
e 22 28
e 22 24
e 23 24
e 23 25
e 24 25
e 24 26
e 24 27
e 25 33
e 25 30
e 25 26
e 25 37
e 26 27
e 26 30
e 27 31
e 27 30
e 27 28
e 28 31
e 28 29
e 29 31
e 29 34
e 30 32
e 30 33
e 30 31
e 31 32
e 31 34
e 32 36
e 32 33
e 32 34
e 33 36
e 33 37
e 34 36
e 34 35
e 35 36
e 35 39
e 35 46
e 36 40
e 36 39
e 36 37
e 37 41
e 37 38
e 37 40
e 38 43
e 38 41
e 38 45
e 39 40
e 39 42
e 39 46
e 40 41
e 40 42
e 41 42
e 41 43
e 42 44
e 42 46
e 42 43
e 43 45
e 43 44
e 44 46
e 44 47
e 44 45
e 45 47
e 45 49
e 46 50
e 46 51
e 46 48
e 46 47
e 47 48
e 47 49
e 48 50
e 48 52
e 48 49
e 49 55
e 49 52
e 49 57
e 50 56
e 50 53
e 50 51
e 50 52
e 51 56
e 51 60
e 51 61
e 52 54
e 52 53
e 52 55
e 53 54
e 53 56
e 54 56
e 54 55
e 55 58
e 55 57
e 55 56
e 56 58
e 56 60
e 57 58
e 58 60
e 60 61
e 62 63
e 62 64
e 62 70
e 63 102
e 63 103
e 63 70
e 63 71
e 63 72
e 64 66
e 64 65
e 64 70
e 64 67
e 65 66
e 65 68
e 66 67
e 66 68
e 67 70
e 67 69
e 67 68
e 68 69
e 68 486
e 68 72
e 68 105
e 69 71
e 69 70
e 69 72
e 70 71
e 71 72
e 72 103
e 72 104
e 72 105
e 73 81
e 73 76
e 73 75
e 73 74
e 73 560
e 73 561
e 73 562
e 73 102
e 73 563
e 74 75
e 74 77
e 74 505
e 74 560
e 75 76
e 75 78
e 75 77
e 76 81
e 76 80
e 76 78
e 77 78
e 77 79
e 77 82
e 77 505
e 77 84
e 78 80
e 78 79
e 79 82
e 79 83
e 79 80
e 80 85
e 80 86
e 80 83
e 80 81
e 81 89
e 81 85
e 81 92
e 82 84
e 82 83
e 83 87
e 83 84
e 83 86
e 84 87
e 84 88
e 84 505
e 85 86
e 85 89
e 86 87
e 86 91
e 86 89
e 87 90
e 87 91
e 87 88
e 88 90
e 88 505
e 89 91
e 89 92
e 90 91
e 90 93
e 90 505
e 91 95
e 91 94
e 91 93
e 91 92
e 92 99
e 92 94
e 92 100
e 93 95
e 93 96
e 93 98
e 93 198
e 93 505
e 94 95
e 94 96
e 94 97
e 94 99
e 95 96
e 96 97
e 96 98
e 97 99
e 97 98
e 98 99
e 98 101
e 98 201
e 98 200
e 98 199
e 98 198
e 99 100
e 99 101
e 100 101
e 101 201
e 102 563
e 102 564
e 102 103
e 102 565
e 102 566
e 102 567
e 102 568
e 102 569
e 102 570
e 102 571
e 102 205
e 102 209
e 102 213
e 102 217
e 102 221
e 102 104
e 103 104
e 104 221
e 104 225
e 104 229
e 104 233
e 104 237
e 104 241
e 104 245
e 104 249
e 104 253
e 104 257
e 104 261
e 104 265
e 104 269
e 104 273
e 104 277
e 104 281
e 104 285
e 104 289
e 104 293
e 104 297
e 104 105
e 105 296
e 105 297
e 105 295
e 105 486
e 105 487
e 105 488
e 105 489
e 106 107
e 106 504
e 106 111
e 106 110
e 107 108
e 107 504
e 107 111
e 107 112
e 108 504
e 108 559
e 108 109
e 108 112
e 108 113
e 109 559
e 109 113
e 110 111
e 110 115
e 110 114
e 111 112
e 111 115
e 111 116
e 112 113
e 112 116
e 112 117
e 113 117
e 114 115
e 114 119
e 114 118
e 115 116
e 115 119
e 115 120
e 116 117
e 116 120
e 116 121
e 117 121
e 118 119
e 118 123
e 118 122
e 119 120
e 119 123
e 119 124
e 120 121
e 120 124
e 120 125
e 121 125
e 122 123
e 122 127
e 122 126
e 123 124
e 123 127
e 123 128
e 124 125
e 124 128
e 124 129
e 125 129
e 126 127
e 126 131
e 126 130
e 127 128
e 127 131
e 127 132
e 128 129
e 128 132
e 128 133
e 129 133
e 130 131
e 130 135
e 130 134
e 131 132
e 131 135
e 131 136
e 132 133
e 132 136
e 132 137
e 133 137
e 134 135
e 134 139
e 134 138
e 135 136
e 135 139
e 135 140
e 136 137
e 136 140
e 136 141
e 137 141
e 138 139
e 138 143
e 138 142
e 139 140
e 139 143
e 139 144
e 140 141
e 140 144
e 140 145
e 141 145
e 142 143
e 142 147
e 142 146
e 143 144
e 143 147
e 143 148
e 144 145
e 144 148
e 144 149
e 145 149
e 146 147
e 146 151
e 146 150
e 147 148
e 147 151
e 147 152
e 148 149
e 148 152
e 148 153
e 149 153
e 150 151
e 150 155
e 150 154
e 151 152
e 151 155
e 151 156
e 152 153
e 152 156
e 152 157
e 153 157
e 154 155
e 154 159
e 154 158
e 155 156
e 155 159
e 155 160
e 156 157
e 156 160
e 156 161
e 157 161
e 158 159
e 158 163
e 158 162
e 159 160
e 159 163
e 159 164
e 160 161
e 160 164
e 160 165
e 161 165
e 162 163
e 162 167
e 162 166
e 163 164
e 163 167
e 163 168
e 164 165
e 164 168
e 164 169
e 165 169
e 166 167
e 166 171
e 166 170
e 167 168
e 167 171
e 167 172
e 168 169
e 168 172
e 168 173
e 169 173
e 170 171
e 170 175
e 170 174
e 171 172
e 171 175
e 171 176
e 172 173
e 172 176
e 172 177
e 173 177
e 174 175
e 174 179
e 174 178
e 175 176
e 175 179
e 175 180
e 176 177
e 176 180
e 176 181
e 177 181
e 178 179
e 178 183
e 178 182
e 179 180
e 179 183
e 179 184
e 180 181
e 180 184
e 180 185
e 181 185
e 182 183
e 182 187
e 182 186
e 183 184
e 183 187
e 183 188
e 184 185
e 184 188
e 184 189
e 185 189
e 186 187
e 186 191
e 186 190
e 187 188
e 187 191
e 187 192
e 188 189
e 188 192
e 188 193
e 189 193
e 190 191
e 190 195
e 190 194
e 191 192
e 191 195
e 191 196
e 192 193
e 192 196
e 192 197
e 193 197
e 194 195
e 194 199
e 194 198
e 195 196
e 195 199
e 195 200
e 196 197
e 196 200
e 196 201
e 197 201
e 198 199
e 198 505
e 199 200
e 200 201
e 202 203
e 202 519
e 202 207
e 202 206
e 203 204
e 203 519
e 203 207
e 203 208
e 204 519
e 204 571
e 204 205
e 204 208
e 204 209
e 205 571
e 205 209
e 206 207
e 206 211
e 206 210
e 207 208
e 207 211
e 207 212
e 208 209
e 208 212
e 208 213
e 209 213
e 210 211
e 210 215
e 210 214
e 211 212
e 211 215
e 211 216
e 212 213
e 212 216
e 212 217
e 213 217
e 214 215
e 214 219
e 214 218
e 215 216
e 215 219
e 215 220
e 216 217
e 216 220
e 216 221
e 217 221
e 218 219
e 218 223
e 218 222
e 219 220
e 219 223
e 219 224
e 220 221
e 220 224
e 220 225
e 221 225
e 222 223
e 222 227
e 222 226
e 223 224
e 223 227
e 223 228
e 224 225
e 224 228
e 224 229
e 225 229
e 226 227
e 226 231
e 226 230
e 227 228
e 227 231
e 227 232
e 228 229
e 228 232
e 228 233
e 229 233
e 230 231
e 230 235
e 230 234
e 231 232
e 231 235
e 231 236
e 232 233
e 232 236
e 232 237
e 233 237
e 234 235
e 234 239
e 234 238
e 235 236
e 235 239
e 235 240
e 236 237
e 236 240
e 236 241
e 237 241
e 238 239
e 238 243
e 238 242
e 239 240
e 239 243
e 239 244
e 240 241
e 240 244
e 240 245
e 241 245
e 242 243
e 242 247
e 242 246
e 243 244
e 243 247
e 243 248
e 244 245
e 244 248
e 244 249
e 245 249
e 246 247
e 246 251
e 246 250
e 247 248
e 247 251
e 247 252
e 248 249
e 248 252
e 248 253
e 249 253
e 250 251
e 250 255
e 250 254
e 251 252
e 251 255
e 251 256
e 252 253
e 252 256
e 252 257
e 253 257
e 254 255
e 254 259
e 254 258
e 255 256
e 255 259
e 255 260
e 256 257
e 256 260
e 256 261
e 257 261
e 258 259
e 258 263
e 258 262
e 259 260
e 259 263
e 259 264
e 260 261
e 260 264
e 260 265
e 261 265
e 262 263
e 262 267
e 262 266
e 263 264
e 263 267
e 263 268
e 264 265
e 264 268
e 264 269
e 265 269
e 266 267
e 266 271
e 266 270
e 267 268
e 267 271
e 267 272
e 268 269
e 268 272
e 268 273
e 269 273
e 270 271
e 270 275
e 270 274
e 271 272
e 271 275
e 271 276
e 272 273
e 272 276
e 272 277
e 273 277
e 274 275
e 274 279
e 274 278
e 275 276
e 275 279
e 275 280
e 276 277
e 276 280
e 276 281
e 277 281
e 278 279
e 278 283
e 278 282
e 279 280
e 279 283
e 279 284
e 280 281
e 280 284
e 280 285
e 281 285
e 282 283
e 282 287
e 282 286
e 283 284
e 283 287
e 283 288
e 284 285
e 284 288
e 284 289
e 285 289
e 286 287
e 286 291
e 286 290
e 287 288
e 287 291
e 287 292
e 288 289
e 288 292
e 288 293
e 289 293
e 290 291
e 290 295
e 291 292
e 291 295
e 291 296
e 292 293
e 292 296
e 292 297
e 293 297
e 295 296
e 296 297
e 298 299
e 298 586
e 298 303
e 298 302
e 299 300
e 299 586
e 299 303
e 299 304
e 300 586
e 300 641
e 300 304
e 300 305
e 302 303
e 302 307
e 302 306
e 303 304
e 303 307
e 303 308
e 304 305
e 304 308
e 304 309
e 305 309
e 306 307
e 306 311
e 306 310
e 307 308
e 307 311
e 307 312
e 308 309
e 308 312
e 308 313
e 309 313
e 310 311
e 310 315
e 310 314
e 311 312
e 311 315
e 311 316
e 312 313
e 312 316
e 312 317
e 313 317
e 314 315
e 314 319
e 314 318
e 315 316
e 315 319
e 315 320
e 316 317
e 316 320
e 316 321
e 317 321
e 318 319
e 318 323
e 318 322
e 319 320
e 319 323
e 319 324
e 320 321
e 320 324
e 320 325
e 321 325
e 322 323
e 322 327
e 322 326
e 323 324
e 323 327
e 323 328
e 324 325
e 324 328
e 324 329
e 325 329
e 326 327
e 326 331
e 326 330
e 327 328
e 327 331
e 327 332
e 328 329
e 328 332
e 328 333
e 329 333
e 330 331
e 330 335
e 330 334
e 331 332
e 331 335
e 331 336
e 332 333
e 332 336
e 332 337
e 333 337
e 334 335
e 334 339
e 334 338
e 335 336
e 335 339
e 335 340
e 336 337
e 336 340
e 336 341
e 337 341
e 338 339
e 338 343
e 338 342
e 339 340
e 339 343
e 339 344
e 340 341
e 340 344
e 340 345
e 341 345
e 342 343
e 342 347
e 342 346
e 343 344
e 343 347
e 343 348
e 344 345
e 344 348
e 344 349
e 345 349
e 346 347
e 346 351
e 346 350
e 347 348
e 347 351
e 347 352
e 348 349
e 348 352
e 348 353
e 349 353
e 350 351
e 350 355
e 350 354
e 351 352
e 351 355
e 351 356
e 352 353
e 352 356
e 352 357
e 353 357
e 354 355
e 354 359
e 354 358
e 355 356
e 355 359
e 355 360
e 356 357
e 356 360
e 356 361
e 357 361
e 358 359
e 358 363
e 358 362
e 359 360
e 359 363
e 359 364
e 360 361
e 360 364
e 360 365
e 361 365
e 362 363
e 362 367
e 362 366
e 363 364
e 363 367
e 363 368
e 364 365
e 364 368
e 364 369
e 365 369
e 366 367
e 366 371
e 366 370
e 367 368
e 367 371
e 367 372
e 368 369
e 368 372
e 368 373
e 369 373
e 370 371
e 370 375
e 370 374
e 371 372
e 371 375
e 371 376
e 372 373
e 372 376
e 372 377
e 373 377
e 374 375
e 374 379
e 374 378
e 375 376
e 375 379
e 375 380
e 376 377
e 376 380
e 376 381
e 377 381
e 378 379
e 378 383
e 378 382
e 379 380
e 379 383
e 379 384
e 380 381
e 380 384
e 380 385
e 381 385
e 382 383
e 382 387
e 382 386
e 383 384
e 383 387
e 383 388
e 384 385
e 384 388
e 384 389
e 385 389
e 386 387
e 386 391
e 386 390
e 387 388
e 387 391
e 387 392
e 388 389
e 388 392
e 388 393
e 389 393
e 390 391
e 390 642
e 391 392
e 391 642
e 392 393
e 392 642
e 393 642
e 394 395
e 394 601
e 394 399
e 394 398
e 395 396
e 395 601
e 395 399
e 395 400
e 396 601
e 396 653
e 396 400
e 396 401
e 398 399
e 398 403
e 398 402
e 399 400
e 399 403
e 399 404
e 400 401
e 400 404
e 400 405
e 401 405
e 402 403
e 402 407
e 402 406
e 403 404
e 403 407
e 403 408
e 404 405
e 404 408
e 404 409
e 405 409
e 406 407
e 406 411
e 406 410
e 407 408
e 407 411
e 407 412
e 408 409
e 408 412
e 408 413
e 409 413
e 410 411
e 410 415
e 410 414
e 411 412
e 411 415
e 411 416
e 412 413
e 412 416
e 412 417
e 413 417
e 414 415
e 414 419
e 414 418
e 415 416
e 415 419
e 415 420
e 416 417
e 416 420
e 416 421
e 417 421
e 418 419
e 418 423
e 418 422
e 419 420
e 419 423
e 419 424
e 420 421
e 420 424
e 420 425
e 421 425
e 422 423
e 422 427
e 422 426
e 423 424
e 423 427
e 423 428
e 424 425
e 424 428
e 424 429
e 425 429
e 426 427
e 426 431
e 426 430
e 427 428
e 427 431
e 427 432
e 428 429
e 428 432
e 428 433
e 429 433
e 430 431
e 430 435
e 430 434
e 431 432
e 431 435
e 431 436
e 432 433
e 432 436
e 432 437
e 433 437
e 434 435
e 434 439
e 434 438
e 435 436
e 435 439
e 435 440
e 436 437
e 436 440
e 436 441
e 437 441
e 438 439
e 438 443
e 438 442
e 439 440
e 439 443
e 439 444
e 440 441
e 440 444
e 440 445
e 441 445
e 442 443
e 442 447
e 442 446
e 443 444
e 443 447
e 443 448
e 444 445
e 444 448
e 444 449
e 445 449
e 446 447
e 446 451
e 446 450
e 447 448
e 447 451
e 447 452
e 448 449
e 448 452
e 448 453
e 449 453
e 450 451
e 450 455
e 450 454
e 451 452
e 451 455
e 451 456
e 452 453
e 452 456
e 452 457
e 453 457
e 454 455
e 454 459
e 454 458
e 455 456
e 455 459
e 455 460
e 456 457
e 456 460
e 456 461
e 457 461
e 458 459
e 458 463
e 458 462
e 459 460
e 459 463
e 459 464
e 460 461
e 460 464
e 460 465
e 461 465
e 462 463
e 462 467
e 462 466
e 463 464
e 463 467
e 463 468
e 464 465
e 464 468
e 464 469
e 465 469
e 466 467
e 466 471
e 466 470
e 467 468
e 467 471
e 467 472
e 468 469
e 468 472
e 468 473
e 469 473
e 470 471
e 470 475
e 470 474
e 471 472
e 471 475
e 471 476
e 472 473
e 472 476
e 472 477
e 473 477
e 474 475
e 474 479
e 474 478
e 475 476
e 475 479
e 475 480
e 476 477
e 476 480
e 476 481
e 477 481
e 478 479
e 478 483
e 478 482
e 479 480
e 479 483
e 479 484
e 480 481
e 480 484
e 480 485
e 481 485
e 482 483
e 482 487
e 482 486
e 483 484
e 483 487
e 483 488
e 484 485
e 484 488
e 484 489
e 485 489
e 486 487
e 487 488
e 488 489
e 490 548
e 490 532
e 490 491
e 491 532
e 491 533
e 491 492
e 492 533
e 492 520
e 492 493
e 493 520
e 493 534
e 495 534
e 495 521
e 497 521
e 497 535
e 497 552
e 497 522
e 497 498
e 498 522
e 498 554
e 498 523
e 498 499
e 499 523
e 499 555
e 499 524
e 499 500
e 500 524
e 500 536
e 500 557
e 500 501
e 501 557
e 501 537
e 501 502
e 502 537
e 502 558
e 502 538
e 502 525
e 502 503
e 503 539
e 503 525
e 503 504
e 504 539
e 504 559
e 505 560
e 505 540
e 505 506
e 506 540
e 506 541
e 506 507
e 507 541
e 507 526
e 507 508
e 508 526
e 508 542
e 510 542
e 510 527
e 512 527
e 512 543
e 512 564
e 512 528
e 512 513
e 513 528
e 513 566
e 513 529
e 513 514
e 514 529
e 514 567
e 514 530
e 514 515
e 515 530
e 515 544
e 515 569
e 515 516
e 516 569
e 516 545
e 516 517
e 517 545
e 517 570
e 517 546
e 517 531
e 517 518
e 518 547
e 518 531
e 518 519
e 519 547
e 519 571
e 520 533
e 520 549
e 520 550
e 520 534
e 521 534
e 521 551
e 521 535
e 522 552
e 522 553
e 522 554
e 523 554
e 523 555
e 524 555
e 524 556
e 524 536
e 525 538
e 525 539
e 526 541
e 526 561
e 526 562
e 526 542
e 527 542
e 527 563
e 527 543
e 528 564
e 528 565
e 528 566
e 529 566
e 529 567
e 530 567
e 530 568
e 530 544
e 531 546
e 531 547
e 532 548
e 532 533
e 532 549
e 533 549
e 534 550
e 534 551
e 535 551
e 535 552
e 536 556
e 536 557
e 537 557
e 537 558
e 538 558
e 538 539
e 539 559
e 539 558
e 540 560
e 540 541
e 540 561
e 541 561
e 542 562
e 542 563
e 543 563
e 543 564
e 544 568
e 544 569
e 545 569
e 545 570
e 546 570
e 546 547
e 547 571
e 547 570
e 548 549
e 549 550
e 550 551
e 551 552
e 552 553
e 553 554
e 554 555
e 555 556
e 556 557
e 557 558
e 558 559
e 560 561
e 561 562
e 562 563
e 563 564
e 564 565
e 565 566
e 566 567
e 567 568
e 568 569
e 569 570
e 570 571
e 572 630
e 572 614
e 572 573
e 573 614
e 573 615
e 573 574
e 574 615
e 574 602
e 574 575
e 575 602
e 575 616
e 575 576
e 576 616
e 576 577
e 577 616
e 577 603
e 577 578
e 578 603
e 578 579
e 579 603
e 579 617
e 579 634
e 579 604
e 579 580
e 580 604
e 580 636
e 580 605
e 580 581
e 581 605
e 581 637
e 581 606
e 581 582
e 582 606
e 582 618
e 582 639
e 582 583
e 583 639
e 583 619
e 583 584
e 584 619
e 584 640
e 584 620
e 584 607
e 584 585
e 585 621
e 585 607
e 585 586
e 586 621
e 586 641
e 587 622
e 587 642
e 587 588
e 588 622
e 588 623
e 588 589
e 589 623
e 589 608
e 589 590
e 590 608
e 590 624
e 590 591
e 591 624
e 591 592
e 592 624
e 592 609
e 592 593
e 593 609
e 593 594
e 594 609
e 594 625
e 594 646
e 594 610
e 594 595
e 595 610
e 595 648
e 595 611
e 595 596
e 596 611
e 596 649
e 596 612
e 596 597
e 597 612
e 597 626
e 597 651
e 597 598
e 598 651
e 598 627
e 598 599
e 599 627
e 599 652
e 599 628
e 599 613
e 599 600
e 600 629
e 600 613
e 600 601
e 601 629
e 601 653
e 602 615
e 602 631
e 602 632
e 602 616
e 603 616
e 603 633
e 603 617
e 604 634
e 604 636
e 605 636
e 605 637
e 606 637
e 606 638
e 606 618
e 607 620
e 607 621
e 608 623
e 608 643
e 608 644
e 608 624
e 609 624
e 609 645
e 609 625
e 610 646
e 610 648
e 611 648
e 611 649
e 612 649
e 612 650
e 612 626
e 613 628
e 613 629
e 614 630
e 614 615
e 614 631
e 615 631
e 616 632
e 616 633
e 617 633
e 617 634
e 618 638
e 618 639
e 619 639
e 619 640
e 620 640
e 620 621
e 621 641
e 621 640
e 622 642
e 622 623
e 622 643
e 623 643
e 624 644
e 624 645
e 625 645
e 625 646
e 626 650
e 626 651
e 627 651
e 627 652
e 628 652
e 628 629
e 629 653
e 629 652
e 630 631
e 631 632
e 632 633
e 633 634
e 636 637
e 637 638
e 638 639
e 639 640
e 640 641
e 642 643
e 643 644
e 644 645
e 645 646
e 648 649
e 649 650
e 650 651
e 651 652
e 652 653
e 105 290
e 305 641
e 401 653
e 493 495
e 495 497
e 508 510
e 510 512
e 636 634
e 648 646
